100 100
16 36
25 46
15 43
9 15
12 8
24 14
13 4
26 2
9 14
20 30
39 31
39 48
31 36
35 27
14 34
5 45
41 3
43 31
19 5
9 50
47 20
44 9
18 8
40 42
5 37
14 43
21 25
40 22
29 28
36 40
4 3
46 24
50 41
29 12
41 36
32 16
24 45
34 30
6 43
9 12
19 21
2 43
1 20
40 17
37 42
25 36
1 23
23 20
41 23
7 37
38 45
8 46
5 12
1 4
50 43
17 33
16 12
8 20
45 11
16 23
36 35
29 30
29 26
13 23
43 26
22 15
48 2
48 3
16 15
22 11
26 42
6 28
18 29
19 50
2 33
24 14
15 31
36 40
40 33
31 10
33 36
8 18
32 9
42 26
18 12
25 16
7 15
9 33
37 33
33 21
18 7
4 9
13 17
17 14
17 27
48 19
30 45
9 47
11 31
33 42
